(declare-const |main__j':67| Int)
(declare-const |__VERIFIER_assert__cond___1':81:91:96:104| Int)
(declare-const havoc Int)
(declare-const |__VERIFIER_assert__cond___0':80:92:97:105| Int)
(declare-const |K:89:90:95:103| Int)
(declare-const |K:113| Int)
(declare-const |main__j':67:75:78:101:109| Int)
(declare-const main__j Int)
(declare-const |main__j':67:93:98:106| Int)
(declare-const |main__i':66:94:99:107| Int)
(declare-const __VERIFIER_assert__cond___1 Int)
(declare-const |K:73:74:77:100:108| Int)
(declare-const |main__i':66:76:79:102:110| Int)
(declare-const |main__i':66| Int)
(declare-const __VERIFIER_assert__cond___0 Int)
(assert (and (= |K:113| 0) (= (+ (- |main__j':67|) main__j) 0)
               (= (- |main__i':66|) 0) (<= (- |K:113|) 0) (= |main__i':66| 0)
               (= |main__i':66| 0) (< (+ (- havoc) |main__i':66|) 0)
               (not (= (ite (<= (+ (- havoc) |main__i':66| 1) 0) 1 0) 0))
               (or (not (and (<= (- |K:89:90:95:103|) 0)
                               (<= |K:89:90:95:103| 0)))
                     (= (+ (- __VERIFIER_assert__cond___1)
                             |__VERIFIER_assert__cond___1':81:91:96:104|) 0))
               (or (not (<= (+ (- |K:89:90:95:103|) 1) 0))
                     (= (+ |__VERIFIER_assert__cond___1':81:91:96:104| -1) 0))
               (or (not (and (<= (- |K:89:90:95:103|) 0)
                               (<= |K:89:90:95:103| 0)))
                     (= (+ (- __VERIFIER_assert__cond___0)
                             |__VERIFIER_assert__cond___0':80:92:97:105|) 0))
               (or (not (<= (+ (- |K:89:90:95:103|) 1) 0))
                     (= (+ |__VERIFIER_assert__cond___0':80:92:97:105| -1) 0))
               (or (not (<= (- |K:89:90:95:103|) 0))
                     (<= (+ (* 8 |main__i':66:94:99:107|)
                              |main__j':67:93:98:106| (- |K:89:90:95:103|)
                              (* -8 |main__i':66|)) 0))
               (or (not (<= (- |K:89:90:95:103|) 0))
                     (<= (+ |main__i':66:94:99:107| |K:89:90:95:103|
                              (- (* |K:89:90:95:103| havoc))
                              (- |main__i':66|)) 0))
               (or (not (<= (- |K:89:90:95:103|) 0))
                     (<= (+ (- |main__i':66:94:99:107|) |main__i':66|) 0))
               (or (and (= |K:89:90:95:103| 0)
                          (= (+ __VERIFIER_assert__cond___1
                                  (- |__VERIFIER_assert__cond___1':81:91:96:104|)) 0)
                          (= (+ __VERIFIER_assert__cond___0
                                  (- |__VERIFIER_assert__cond___0':80:92:97:105|)) 0)
                          (= (- |main__j':67:93:98:106|) 0)
                          (= (+ (- |main__i':66:94:99:107|) |main__i':66|) 0))
                     (and (<= (+ (- |K:89:90:95:103|) 1) 0)
                            (<= (+ (- havoc) |main__i':66| 1) 0)
                            (<= (- |main__i':66|) 0)
                            (= (+ |__VERIFIER_assert__cond___0':80:92:97:105|
                                    -1) 0)
                            (= (+ |__VERIFIER_assert__cond___1':81:91:96:104|
                                    -1) 0)
                            (<= (+ |main__j':67:93:98:106| -7) 0)
                            (<= (+ |main__i':66:94:99:107| (- havoc) 1) 0)
                            (<= (- |main__i':66:94:99:107|) 0)
                            (<= (- |main__j':67:93:98:106|) 0)
                            (<= (+ (- |main__i':66:94:99:107|)
                                     (- |main__j':67:93:98:106|) 1) 0)))
               (<= (- |K:89:90:95:103|) 0) (<= (- |main__j':67:93:98:106|) 0)
               (< (- havoc) 0) (<= (- |main__i':66:94:99:107|) 0)
               (not (= (ite (< (+ (- |main__i':66:94:99:107|) -1) 0) 1 0) 0))
               (or (not (and (<= (- |K:73:74:77:100:108|) 0)
                               (<= |K:73:74:77:100:108| 0)))
                     (= (+ |main__j':67:75:78:101:109|
                             (- |main__j':67:93:98:106|) -1) 0))
               (or (not (<= (+ (- |K:73:74:77:100:108|) 1) 0))
                     (= |main__j':67:75:78:101:109| 0))
               (or (not (<= (- |K:73:74:77:100:108|) 0))
                     (= (+ |main__i':66:76:79:102:110|
                             (- |K:73:74:77:100:108|)
                             (- |main__i':66:94:99:107|)) 0))
               (or (not (<= (- |K:73:74:77:100:108|) 0))
                     (<= (+ |main__j':67:75:78:101:109|
                              (* 8 |K:73:74:77:100:108|)
                              (- |main__j':67:93:98:106|) -1) 0))
               (or (and (= |K:73:74:77:100:108| 0)
                          (= (+ (- |main__j':67:75:78:101:109|)
                                  |main__j':67:93:98:106| 1) 0)
                          (= (+ (- |main__i':66:76:79:102:110|)
                                  |main__i':66:94:99:107|) 0))
                     (and (<= (+ (- |K:73:74:77:100:108|) 1) 0)
                            (<= (+ |main__i':66:94:99:107| (- havoc) 2) 0)
                            (<= (+ (- |main__j':67:93:98:106|) 7) 0)
                            (<= (- |main__i':66:94:99:107|) 0)
                            (= |main__j':67:75:78:101:109| 0)
                            (<= (+ |main__i':66:76:79:102:110| (- havoc) 1) 0)
                            (<= (+ (- |main__i':66:76:79:102:110|) 1) 0)))
               (<= (- |K:73:74:77:100:108|) 0)
               (<= (- |main__j':67:75:78:101:109|) 0) (< (- havoc) 0)
               (<= (- |main__i':66:76:79:102:110|) 0)
               (< (+ |main__j':67:75:78:101:109| -8) 0)
               (= (ite (<= (+ |main__i':66:76:79:102:110| (- havoc) 1) 0) 1 0) 0)))
(check-sat)
